proyfinal/src/viki/013/experimentInOfficeAgust.take6.output/86f6f805-e7dc-4ed8-ae77-83f633a047a0.als.dat
{'cnf.clauses': '118081',
 'cnf.totvars': '69608',
 'conflict literals': '2940',
 'conflicts': '279',
 'decisions': '4599',
 'memused.mb': '17.20',
 'outcome': 'UNSAT',
 'propagations': '429600',
 'restarts': '3',
 'solver.msecs': 54,
 'task.msecs': 105}
