proyfinal/src/viki/013/experimentInOfficeAgust.take6.output/86f6f805-e7dc-4ed8-ae77-83f633a047a0.als.out
Reading from standard input... Use '--help' for help.
============================[ Problem Statistics ]=============================
|                                                                             |
|  Number of variables:         69608                                         |
|  Number of clauses:          118081                                         |
|  Parse time:                   0.02 s                                       |
|                                                                             |
============================[ Search Statistics ]==============================
| Conflicts |          ORIGINAL         |          LEARNT          | Progress |
|           |    Vars  Clauses Literals |    Limit  Clauses Lit/Cl |          |
===============================================================================
|       100 |   58119    86436   213965 |    31693       95     13 | 16.505 % |
|       250 |   57389    85362   211486 |    34862      240     12 | 17.554 % |
===============================================================================
restarts              : 3
conflicts             : 279            (5129 /sec)
decisions             : 4599           (0.00 % random) (84548 /sec)
propagations          : 429600         (7897785 /sec)
conflict literals     : 2940           (19.28 % deleted)
Memory used           : 17.20 MB
CPU time              : 0.054395 s

UNSATISFIABLE
